c Mesh Graph
c 10 Rows, 10 columns, capacities in range [0, 500]
p max 102 290
n 1 s
n 102 t
a 1 11 1500
a 1 10 1500
a 1 9 1500
a 1 8 1500
a 1 7 1500
a 1 6 1500
a 1 5 1500
a 1 4 1500
a 1 3 1500
a 1 2 1500
a 2 13 278
a 2 12 387
a 2 21 384
a 3 14 336
a 3 13 294
a 3 12 416
a 4 15 150
a 4 14 493
a 4 13 387
a 5 16 28
a 5 15 363
a 5 14 422
a 6 17 264
a 6 16 60
a 6 15 191
a 7 18 427
a 7 17 41
a 7 16 427
a 8 19 212
a 8 18 237
a 8 17 173
a 9 20 430
a 9 19 68
a 9 18 369
a 10 21 363
a 10 20 31
a 10 19 283
a 11 12 136
a 11 21 68
a 11 20 124
a 12 23 23
a 12 22 303
a 12 31 430
a 13 24 168
a 13 23 70
a 13 22 59
a 14 25 12
a 14 24 457
a 14 23 394
a 15 26 374
a 15 25 230
a 15 24 43
a 16 27 285
a 16 26 420
a 16 25 422
a 17 28 325
a 17 27 199
a 17 26 38
a 18 29 414
a 18 28 371
a 18 27 316
a 19 30 481
a 19 29 92
a 19 28 27
a 20 31 363
a 20 30 374
a 20 29 457
a 21 22 282
a 21 31 497
a 21 30 171
a 22 33 85
a 22 32 426
a 22 41 306
a 23 34 6
a 23 33 337
a 23 32 328
a 24 35 314
a 24 34 230
a 24 33 347
a 25 36 396
a 25 35 125
a 25 34 358
a 26 37 315
a 26 36 46
a 26 35 83
a 27 38 365
a 27 37 435
a 27 36 368
a 28 39 88
a 28 38 251
a 28 37 44
a 29 40 179
a 29 39 277
a 29 38 309
a 30 41 404
a 30 40 85
a 30 39 289
a 31 32 400
a 31 41 255
a 31 40 152
a 32 43 177
a 32 42 61
a 32 51 433
a 33 44 13
a 33 43 240
a 33 42 369
a 34 45 95
a 34 44 87
a 34 43 227
a 35 46 71
a 35 45 296
a 35 44 40
a 36 47 468
a 36 46 379
a 36 45 435
a 37 48 403
a 37 47 98
a 37 46 102
a 38 49 153
a 38 48 493
a 38 47 318
a 39 50 281
a 39 49 302
a 39 48 257
a 40 51 366
a 40 50 442
a 40 49 287
a 41 42 120
a 41 51 445
a 41 50 190
a 42 53 32
a 42 52 230
a 42 61 441
a 43 54 272
a 43 53 98
a 43 52 118
a 44 55 210
a 44 54 176
a 44 53 482
a 45 56 357
a 45 55 68
a 45 54 428
a 46 57 87
a 46 56 354
a 46 55 498
a 47 58 184
a 47 57 307
a 47 56 466
a 48 59 29
a 48 58 125
a 48 57 220
a 49 60 330
a 49 59 233
a 49 58 372
a 50 61 271
a 50 60 20
a 50 59 4
a 51 52 216
a 51 61 209
a 51 60 369
a 52 63 297
a 52 62 150
a 52 71 341
a 53 64 246
a 53 63 119
a 53 62 224
a 54 65 422
a 54 64 452
a 54 63 347
a 55 66 489
a 55 65 380
a 55 64 56
a 56 67 342
a 56 66 229
a 56 65 265
a 57 68 1
a 57 67 194
a 57 66 351
a 58 69 125
a 58 68 265
a 58 67 35
a 59 70 357
a 59 69 488
a 59 68 415
a 60 71 228
a 60 70 492
a 60 69 244
a 61 62 437
a 61 71 360
a 61 70 366
a 62 73 438
a 62 72 52
a 62 81 433
a 63 74 408
a 63 73 276
a 63 72 229
a 64 75 359
a 64 74 122
a 64 73 475
a 65 76 238
a 65 75 30
a 65 74 396
a 66 77 319
a 66 76 294
a 66 75 236
a 67 78 12
a 67 77 144
a 67 76 429
a 68 79 277
a 68 78 30
a 68 77 429
a 69 80 264
a 69 79 444
a 69 78 405
a 70 81 107
a 70 80 39
a 70 79 114
a 71 72 319
a 71 81 405
a 71 80 341
a 72 83 370
a 72 82 189
a 72 91 129
a 73 84 497
a 73 83 418
a 73 82 418
a 74 85 471
a 74 84 244
a 74 83 325
a 75 86 500
a 75 85 491
a 75 84 184
a 76 87 145
a 76 86 226
a 76 85 273
a 77 88 140
a 77 87 6
a 77 86 91
a 78 89 170
a 78 88 287
a 78 87 455
a 79 90 465
a 79 89 43
a 79 88 83
a 80 91 356
a 80 90 8
a 80 89 198
a 81 82 112
a 81 91 349
a 81 90 305
a 82 93 300
a 82 92 329
a 82 101 123
a 83 94 69
a 83 93 247
a 83 92 344
a 84 95 312
a 84 94 423
a 84 93 341
a 85 96 302
a 85 95 106
a 85 94 311
a 86 97 379
a 86 96 231
a 86 95 162
a 87 98 237
a 87 97 321
a 87 96 306
a 88 99 23
a 88 98 127
a 88 97 445
a 89 100 417
a 89 99 209
a 89 98 466
a 90 101 425
a 90 100 259
a 90 99 283
a 91 92 125
a 91 101 63
a 91 100 138
a 92 102 1500
a 93 102 1500
a 94 102 1500
a 95 102 1500
a 96 102 1500
a 97 102 1500
a 98 102 1500
a 99 102 1500
a 100 102 1500
a 101 102 1500
